(set-info :category "industrial")
(set-info :status sat)
(declare-fun x02 () (_ BitVec 8))
(declare-fun x03 () (_ BitVec 8))
(declare-fun x05 () (_ BitVec 8))
(declare-fun x06 () (_ BitVec 8))
(declare-fun x08 () (_ BitVec 8))
(declare-fun x10 () (_ BitVec 8))
(declare-fun x13 () (_ BitVec 8))
(declare-fun x16 () (_ BitVec 8))
(declare-fun x17 () (_ BitVec 8))
(declare-fun x18 () (_ BitVec 8))
(declare-fun x21 () (_ BitVec 8))
(declare-fun x22 () (_ BitVec 8))
(declare-fun x23 () (_ BitVec 8))
(declare-fun x26 () (_ BitVec 8))
(declare-fun x27 () (_ BitVec 8))
(declare-fun x30 () (_ BitVec 8))
(declare-fun x34 () (_ BitVec 8))
(declare-fun x36 () (_ BitVec 8))
(declare-fun x40 () (_ BitVec 8))
(declare-fun x42 () (_ BitVec 8))
(declare-fun x43 () (_ BitVec 8))
(declare-fun x45 () (_ BitVec 8))
(declare-fun x46 () (_ BitVec 8))
(declare-fun x50 () (_ BitVec 8))
(declare-fun x51 () (_ BitVec 8))
(declare-fun x52 () (_ BitVec 8))
(declare-fun x54 () (_ BitVec 8))
(declare-fun x55 () (_ BitVec 8))
(declare-fun x57 () (_ BitVec 8))
(declare-fun x58 () (_ BitVec 8))
(declare-fun x60 () (_ BitVec 8))
(declare-fun x61 () (_ BitVec 8))
(declare-fun x62 () (_ BitVec 8))
(declare-fun x64 () (_ BitVec 8))
(declare-fun x65 () (_ BitVec 8))
(declare-fun x66 () (_ BitVec 8))
(declare-fun x70 () (_ BitVec 8))
(declare-fun x73 () (_ BitVec 8))
(declare-fun x74 () (_ BitVec 8))
(declare-fun x76 () (_ BitVec 8))
(declare-fun x80 () (_ BitVec 8))
(declare-fun x81 () (_ BitVec 8))
(declare-fun x83 () (_ BitVec 8))
(declare-fun x85 () (_ BitVec 8))
(declare-fun x86 () (_ BitVec 8))
(declare-fun x87 () (_ BitVec 8))
(assert (bvult x02 (_ bv9 8)))
(assert (bvult x03 (_ bv9 8)))
(assert (bvult x05 (_ bv9 8)))
(assert (bvult x06 (_ bv9 8)))
(assert (bvult x08 (_ bv9 8)))
(assert (bvult x10 (_ bv9 8)))
(assert (bvult x13 (_ bv9 8)))
(assert (bvult x16 (_ bv9 8)))
(assert (bvult x17 (_ bv9 8)))
(assert (bvult x18 (_ bv9 8)))
(assert (bvult x21 (_ bv9 8)))
(assert (bvult x22 (_ bv9 8)))
(assert (bvult x23 (_ bv9 8)))
(assert (bvult x26 (_ bv9 8)))
(assert (bvult x27 (_ bv9 8)))
(assert (bvult x30 (_ bv9 8)))
(assert (bvult x34 (_ bv9 8)))
(assert (bvult x36 (_ bv9 8)))
(assert (bvult x40 (_ bv9 8)))
(assert (bvult x42 (_ bv9 8)))
(assert (bvult x43 (_ bv9 8)))
(assert (bvult x45 (_ bv9 8)))
(assert (bvult x46 (_ bv9 8)))
(assert (bvult x50 (_ bv9 8)))
(assert (bvult x51 (_ bv9 8)))
(assert (bvult x52 (_ bv9 8)))
(assert (bvult x54 (_ bv9 8)))
(assert (bvult x55 (_ bv9 8)))
(assert (bvult x57 (_ bv9 8)))
(assert (bvult x58 (_ bv9 8)))
(assert (bvult x60 (_ bv9 8)))
(assert (bvult x61 (_ bv9 8)))
(assert (bvult x62 (_ bv9 8)))
(assert (bvult x64 (_ bv9 8)))
(assert (bvult x65 (_ bv9 8)))
(assert (bvult x66 (_ bv9 8)))
(assert (bvult x70 (_ bv9 8)))
(assert (bvult x73 (_ bv9 8)))
(assert (bvult x74 (_ bv9 8)))
(assert (bvult x76 (_ bv9 8)))
(assert (bvult x80 (_ bv9 8)))
(assert (bvult x81 (_ bv9 8)))
(assert (bvult x83 (_ bv9 8)))
(assert (bvult x85 (_ bv9 8)))
(assert (bvult x86 (_ bv9 8)))
(assert (bvult x87 (_ bv9 8)))
(assert (not (= (_ bv5 8) (_ bv7 8))))
(assert (not (= (_ bv5 8) x02)))
(assert (not (= (_ bv5 8) x03)))
(assert (not (= (_ bv5 8) (_ bv4 8))))
(assert (not (= (_ bv5 8) x05)))
(assert (not (= (_ bv5 8) x06)))
(assert (not (= (_ bv5 8) (_ bv3 8))))
(assert (not (= (_ bv5 8) x08)))
(assert (not (= (_ bv7 8) x02)))
(assert (not (= (_ bv7 8) x03)))
(assert (not (= (_ bv7 8) (_ bv4 8))))
(assert (not (= (_ bv7 8) x05)))
(assert (not (= (_ bv7 8) x06)))
(assert (not (= (_ bv7 8) (_ bv3 8))))
(assert (not (= (_ bv7 8) x08)))
(assert (not (= x02 x03)))
(assert (not (= x02 (_ bv4 8))))
(assert (not (= x02 x05)))
(assert (not (= x02 x06)))
(assert (not (= x02 (_ bv3 8))))
(assert (not (= x02 x08)))
(assert (not (= x03 (_ bv4 8))))
(assert (not (= x03 x05)))
(assert (not (= x03 x06)))
(assert (not (= x03 (_ bv3 8))))
(assert (not (= x03 x08)))
(assert (not (= (_ bv4 8) x05)))
(assert (not (= (_ bv4 8) x06)))
(assert (not (= (_ bv4 8) (_ bv3 8))))
(assert (not (= (_ bv4 8) x08)))
(assert (not (= x05 x06)))
(assert (not (= x05 (_ bv3 8))))
(assert (not (= x05 x08)))
(assert (not (= x06 (_ bv3 8))))
(assert (not (= x06 x08)))
(assert (not (= (_ bv3 8) x08)))
(assert (not (= x10 (_ bv4 8))))
(assert (not (= x10 (_ bv8 8))))
(assert (not (= x10 x13)))
(assert (not (= x10 (_ bv3 8))))
(assert (not (= x10 (_ bv6 8))))
(assert (not (= x10 x16)))
(assert (not (= x10 x17)))
(assert (not (= x10 x18)))
(assert (not (= (_ bv4 8) (_ bv8 8))))
(assert (not (= (_ bv4 8) x13)))
(assert (not (= (_ bv4 8) (_ bv3 8))))
(assert (not (= (_ bv4 8) (_ bv6 8))))
(assert (not (= (_ bv4 8) x16)))
(assert (not (= (_ bv4 8) x17)))
(assert (not (= (_ bv4 8) x18)))
(assert (not (= (_ bv8 8) x13)))
(assert (not (= (_ bv8 8) (_ bv3 8))))
(assert (not (= (_ bv8 8) (_ bv6 8))))
(assert (not (= (_ bv8 8) x16)))
(assert (not (= (_ bv8 8) x17)))
(assert (not (= (_ bv8 8) x18)))
(assert (not (= x13 (_ bv3 8))))
(assert (not (= x13 (_ bv6 8))))
(assert (not (= x13 x16)))
(assert (not (= x13 x17)))
(assert (not (= x13 x18)))
(assert (not (= (_ bv3 8) (_ bv6 8))))
(assert (not (= (_ bv3 8) x16)))
(assert (not (= (_ bv3 8) x17)))
(assert (not (= (_ bv3 8) x18)))
(assert (not (= (_ bv6 8) x16)))
(assert (not (= (_ bv6 8) x17)))
(assert (not (= (_ bv6 8) x18)))
(assert (not (= x16 x17)))
(assert (not (= x16 x18)))
(assert (not (= x17 x18)))
(assert (not (= (_ bv2 8) x21)))
(assert (not (= (_ bv2 8) x22)))
(assert (not (= (_ bv2 8) x23)))
(assert (not (= (_ bv2 8) (_ bv9 8))))
(assert (not (= (_ bv2 8) (_ bv8 8))))
(assert (not (= (_ bv2 8) x26)))
(assert (not (= (_ bv2 8) x27)))
(assert (not (= (_ bv2 8) (_ bv7 8))))
(assert (not (= x21 x22)))
(assert (not (= x21 x23)))
(assert (not (= x21 (_ bv9 8))))
(assert (not (= x21 (_ bv8 8))))
(assert (not (= x21 x26)))
(assert (not (= x21 x27)))
(assert (not (= x21 (_ bv7 8))))
(assert (not (= x22 x23)))
(assert (not (= x22 (_ bv9 8))))
(assert (not (= x22 (_ bv8 8))))
(assert (not (= x22 x26)))
(assert (not (= x22 x27)))
(assert (not (= x22 (_ bv7 8))))
(assert (not (= x23 (_ bv9 8))))
(assert (not (= x23 (_ bv8 8))))
(assert (not (= x23 x26)))
(assert (not (= x23 x27)))
(assert (not (= x23 (_ bv7 8))))
(assert (not (= (_ bv9 8) (_ bv8 8))))
(assert (not (= (_ bv9 8) x26)))
(assert (not (= (_ bv9 8) x27)))
(assert (not (= (_ bv9 8) (_ bv7 8))))
(assert (not (= (_ bv8 8) x26)))
(assert (not (= (_ bv8 8) x27)))
(assert (not (= (_ bv8 8) (_ bv7 8))))
(assert (not (= x26 x27)))
(assert (not (= x26 (_ bv7 8))))
(assert (not (= x27 (_ bv7 8))))
(assert (not (= x30 (_ bv9 8))))
(assert (not (= x30 (_ bv1 8))))
(assert (not (= x30 (_ bv6 8))))
(assert (not (= x30 x34)))
(assert (not (= x30 (_ bv3 8))))
(assert (not (= x30 x36)))
(assert (not (= x30 (_ bv5 8))))
(assert (not (= x30 (_ bv8 8))))
(assert (not (= (_ bv9 8) (_ bv1 8))))
(assert (not (= (_ bv9 8) (_ bv6 8))))
(assert (not (= (_ bv9 8) x34)))
(assert (not (= (_ bv9 8) (_ bv3 8))))
(assert (not (= (_ bv9 8) x36)))
(assert (not (= (_ bv9 8) (_ bv5 8))))
(assert (not (= (_ bv9 8) (_ bv8 8))))
(assert (not (= (_ bv1 8) (_ bv6 8))))
(assert (not (= (_ bv1 8) x34)))
(assert (not (= (_ bv1 8) (_ bv3 8))))
(assert (not (= (_ bv1 8) x36)))
(assert (not (= (_ bv1 8) (_ bv5 8))))
(assert (not (= (_ bv1 8) (_ bv8 8))))
(assert (not (= (_ bv6 8) x34)))
(assert (not (= (_ bv6 8) (_ bv3 8))))
(assert (not (= (_ bv6 8) x36)))
(assert (not (= (_ bv6 8) (_ bv5 8))))
(assert (not (= (_ bv6 8) (_ bv8 8))))
(assert (not (= x34 (_ bv3 8))))
(assert (not (= x34 x36)))
(assert (not (= x34 (_ bv5 8))))
(assert (not (= x34 (_ bv8 8))))
(assert (not (= (_ bv3 8) x36)))
(assert (not (= (_ bv3 8) (_ bv5 8))))
(assert (not (= (_ bv3 8) (_ bv8 8))))
(assert (not (= x36 (_ bv5 8))))
(assert (not (= x36 (_ bv8 8))))
(assert (not (= (_ bv5 8) (_ bv8 8))))
(assert (not (= x40 (_ bv5 8))))
(assert (not (= x40 x42)))
(assert (not (= x40 x43)))
(assert (not (= x40 (_ bv8 8))))
(assert (not (= x40 x45)))
(assert (not (= x40 x46)))
(assert (not (= x40 (_ bv6 8))))
(assert (not (= x40 (_ bv4 8))))
(assert (not (= (_ bv5 8) x42)))
(assert (not (= (_ bv5 8) x43)))
(assert (not (= (_ bv5 8) (_ bv8 8))))
(assert (not (= (_ bv5 8) x45)))
(assert (not (= (_ bv5 8) x46)))
(assert (not (= (_ bv5 8) (_ bv6 8))))
(assert (not (= (_ bv5 8) (_ bv4 8))))
(assert (not (= x42 x43)))
(assert (not (= x42 (_ bv8 8))))
(assert (not (= x42 x45)))
(assert (not (= x42 x46)))
(assert (not (= x42 (_ bv6 8))))
(assert (not (= x42 (_ bv4 8))))
(assert (not (= x43 (_ bv8 8))))
(assert (not (= x43 x45)))
(assert (not (= x43 x46)))
(assert (not (= x43 (_ bv6 8))))
(assert (not (= x43 (_ bv4 8))))
(assert (not (= (_ bv8 8) x45)))
(assert (not (= (_ bv8 8) x46)))
(assert (not (= (_ bv8 8) (_ bv6 8))))
(assert (not (= (_ bv8 8) (_ bv4 8))))
(assert (not (= x45 x46)))
(assert (not (= x45 (_ bv6 8))))
(assert (not (= x45 (_ bv4 8))))
(assert (not (= x46 (_ bv6 8))))
(assert (not (= x46 (_ bv4 8))))
(assert (not (= (_ bv6 8) (_ bv4 8))))
(assert (not (= x50 x51)))
(assert (not (= x50 x52)))
(assert (not (= x50 (_ bv1 8))))
(assert (not (= x50 x54)))
(assert (not (= x50 x55)))
(assert (not (= x50 (_ bv2 8))))
(assert (not (= x50 x57)))
(assert (not (= x50 x58)))
(assert (not (= x51 x52)))
(assert (not (= x51 (_ bv1 8))))
(assert (not (= x51 x54)))
(assert (not (= x51 x55)))
(assert (not (= x51 (_ bv2 8))))
(assert (not (= x51 x57)))
(assert (not (= x51 x58)))
(assert (not (= x52 (_ bv1 8))))
(assert (not (= x52 x54)))
(assert (not (= x52 x55)))
(assert (not (= x52 (_ bv2 8))))
(assert (not (= x52 x57)))
(assert (not (= x52 x58)))
(assert (not (= (_ bv1 8) x54)))
(assert (not (= (_ bv1 8) x55)))
(assert (not (= (_ bv1 8) (_ bv2 8))))
(assert (not (= (_ bv1 8) x57)))
(assert (not (= (_ bv1 8) x58)))
(assert (not (= x54 x55)))
(assert (not (= x54 (_ bv2 8))))
(assert (not (= x54 x57)))
(assert (not (= x54 x58)))
(assert (not (= x55 (_ bv2 8))))
(assert (not (= x55 x57)))
(assert (not (= x55 x58)))
(assert (not (= (_ bv2 8) x57)))
(assert (not (= (_ bv2 8) x58)))
(assert (not (= x57 x58)))
(assert (not (= x60 x61)))
(assert (not (= x60 x62)))
(assert (not (= x60 (_ bv4 8))))
(assert (not (= x60 x64)))
(assert (not (= x60 x65)))
(assert (not (= x60 x66)))
(assert (not (= x60 (_ bv7 8))))
(assert (not (= x60 (_ bv1 8))))
(assert (not (= x61 x62)))
(assert (not (= x61 (_ bv4 8))))
(assert (not (= x61 x64)))
(assert (not (= x61 x65)))
(assert (not (= x61 x66)))
(assert (not (= x61 (_ bv7 8))))
(assert (not (= x61 (_ bv1 8))))
(assert (not (= x62 (_ bv4 8))))
(assert (not (= x62 x64)))
(assert (not (= x62 x65)))
(assert (not (= x62 x66)))
(assert (not (= x62 (_ bv7 8))))
(assert (not (= x62 (_ bv1 8))))
(assert (not (= (_ bv4 8) x64)))
(assert (not (= (_ bv4 8) x65)))
(assert (not (= (_ bv4 8) x66)))
(assert (not (= (_ bv4 8) (_ bv7 8))))
(assert (not (= (_ bv4 8) (_ bv1 8))))
(assert (not (= x64 x65)))
(assert (not (= x64 x66)))
(assert (not (= x64 (_ bv7 8))))
(assert (not (= x64 (_ bv1 8))))
(assert (not (= x65 x66)))
(assert (not (= x65 (_ bv7 8))))
(assert (not (= x65 (_ bv1 8))))
(assert (not (= x66 (_ bv7 8))))
(assert (not (= x66 (_ bv1 8))))
(assert (not (= (_ bv7 8) (_ bv1 8))))
(assert (not (= x70 (_ bv6 8))))
(assert (not (= x70 (_ bv4 8))))
(assert (not (= x70 x73)))
(assert (not (= x70 x74)))
(assert (not (= x70 (_ bv2 8))))
(assert (not (= x70 x76)))
(assert (not (= x70 (_ bv8 8))))
(assert (not (= x70 (_ bv9 8))))
(assert (not (= (_ bv6 8) (_ bv4 8))))
(assert (not (= (_ bv6 8) x73)))
(assert (not (= (_ bv6 8) x74)))
(assert (not (= (_ bv6 8) (_ bv2 8))))
(assert (not (= (_ bv6 8) x76)))
(assert (not (= (_ bv6 8) (_ bv8 8))))
(assert (not (= (_ bv6 8) (_ bv9 8))))
(assert (not (= (_ bv4 8) x73)))
(assert (not (= (_ bv4 8) x74)))
(assert (not (= (_ bv4 8) (_ bv2 8))))
(assert (not (= (_ bv4 8) x76)))
(assert (not (= (_ bv4 8) (_ bv8 8))))
(assert (not (= (_ bv4 8) (_ bv9 8))))
(assert (not (= x73 x74)))
(assert (not (= x73 (_ bv2 8))))
(assert (not (= x73 x76)))
(assert (not (= x73 (_ bv8 8))))
(assert (not (= x73 (_ bv9 8))))
(assert (not (= x74 (_ bv2 8))))
(assert (not (= x74 x76)))
(assert (not (= x74 (_ bv8 8))))
(assert (not (= x74 (_ bv9 8))))
(assert (not (= (_ bv2 8) x76)))
(assert (not (= (_ bv2 8) (_ bv8 8))))
(assert (not (= (_ bv2 8) (_ bv9 8))))
(assert (not (= x76 (_ bv8 8))))
(assert (not (= x76 (_ bv9 8))))
(assert (not (= (_ bv8 8) (_ bv9 8))))
(assert (not (= x80 x81)))
(assert (not (= x80 (_ bv3 8))))
(assert (not (= x80 x83)))
(assert (not (= x80 (_ bv7 8))))
(assert (not (= x80 x85)))
(assert (not (= x80 x86)))
(assert (not (= x80 x87)))
(assert (not (= x80 (_ bv2 8))))
(assert (not (= x81 (_ bv3 8))))
(assert (not (= x81 x83)))
(assert (not (= x81 (_ bv7 8))))
(assert (not (= x81 x85)))
(assert (not (= x81 x86)))
(assert (not (= x81 x87)))
(assert (not (= x81 (_ bv2 8))))
(assert (not (= (_ bv3 8) x83)))
(assert (not (= (_ bv3 8) (_ bv7 8))))
(assert (not (= (_ bv3 8) x85)))
(assert (not (= (_ bv3 8) x86)))
(assert (not (= (_ bv3 8) x87)))
(assert (not (= (_ bv3 8) (_ bv2 8))))
(assert (not (= x83 (_ bv7 8))))
(assert (not (= x83 x85)))
(assert (not (= x83 x86)))
(assert (not (= x83 x87)))
(assert (not (= x83 (_ bv2 8))))
(assert (not (= (_ bv7 8) x85)))
(assert (not (= (_ bv7 8) x86)))
(assert (not (= (_ bv7 8) x87)))
(assert (not (= (_ bv7 8) (_ bv2 8))))
(assert (not (= x85 x86)))
(assert (not (= x85 x87)))
(assert (not (= x85 (_ bv2 8))))
(assert (not (= x86 x87)))
(assert (not (= x86 (_ bv2 8))))
(assert (not (= x87 (_ bv2 8))))
(assert (not (= (_ bv5 8) x10)))
(assert (not (= (_ bv5 8) (_ bv2 8))))
(assert (not (= (_ bv5 8) x30)))
(assert (not (= (_ bv5 8) x40)))
(assert (not (= (_ bv5 8) x50)))
(assert (not (= (_ bv5 8) x60)))
(assert (not (= (_ bv5 8) x70)))
(assert (not (= (_ bv5 8) x80)))
(assert (not (= x10 (_ bv2 8))))
(assert (not (= x10 x30)))
(assert (not (= x10 x40)))
(assert (not (= x10 x50)))
(assert (not (= x10 x60)))
(assert (not (= x10 x70)))
(assert (not (= x10 x80)))
(assert (not (= (_ bv2 8) x30)))
(assert (not (= (_ bv2 8) x40)))
(assert (not (= (_ bv2 8) x50)))
(assert (not (= (_ bv2 8) x60)))
(assert (not (= (_ bv2 8) x70)))
(assert (not (= (_ bv2 8) x80)))
(assert (not (= x30 x40)))
(assert (not (= x30 x50)))
(assert (not (= x30 x60)))
(assert (not (= x30 x70)))
(assert (not (= x30 x80)))
(assert (not (= x40 x50)))
(assert (not (= x40 x60)))
(assert (not (= x40 x70)))
(assert (not (= x40 x80)))
(assert (not (= x50 x60)))
(assert (not (= x50 x70)))
(assert (not (= x50 x80)))
(assert (not (= x60 x70)))
(assert (not (= x60 x80)))
(assert (not (= x70 x80)))
(assert (not (= (_ bv7 8) (_ bv4 8))))
(assert (not (= (_ bv7 8) x21)))
(assert (not (= (_ bv7 8) (_ bv9 8))))
(assert (not (= (_ bv7 8) (_ bv5 8))))
(assert (not (= (_ bv7 8) x51)))
(assert (not (= (_ bv7 8) x61)))
(assert (not (= (_ bv7 8) (_ bv6 8))))
(assert (not (= (_ bv7 8) x81)))
(assert (not (= (_ bv4 8) x21)))
(assert (not (= (_ bv4 8) (_ bv9 8))))
(assert (not (= (_ bv4 8) (_ bv5 8))))
(assert (not (= (_ bv4 8) x51)))
(assert (not (= (_ bv4 8) x61)))
(assert (not (= (_ bv4 8) (_ bv6 8))))
(assert (not (= (_ bv4 8) x81)))
(assert (not (= x21 (_ bv9 8))))
(assert (not (= x21 (_ bv5 8))))
(assert (not (= x21 x51)))
(assert (not (= x21 x61)))
(assert (not (= x21 (_ bv6 8))))
(assert (not (= x21 x81)))
(assert (not (= (_ bv9 8) (_ bv5 8))))
(assert (not (= (_ bv9 8) x51)))
(assert (not (= (_ bv9 8) x61)))
(assert (not (= (_ bv9 8) (_ bv6 8))))
(assert (not (= (_ bv9 8) x81)))
(assert (not (= (_ bv5 8) x51)))
(assert (not (= (_ bv5 8) x61)))
(assert (not (= (_ bv5 8) (_ bv6 8))))
(assert (not (= (_ bv5 8) x81)))
(assert (not (= x51 x61)))
(assert (not (= x51 (_ bv6 8))))
(assert (not (= x51 x81)))
(assert (not (= x61 (_ bv6 8))))
(assert (not (= x61 x81)))
(assert (not (= (_ bv6 8) x81)))
(assert (not (= x02 (_ bv8 8))))
(assert (not (= x02 x22)))
(assert (not (= x02 (_ bv1 8))))
(assert (not (= x02 x42)))
(assert (not (= x02 x52)))
(assert (not (= x02 x62)))
(assert (not (= x02 (_ bv4 8))))
(assert (not (= x02 (_ bv3 8))))
(assert (not (= (_ bv8 8) x22)))
(assert (not (= (_ bv8 8) (_ bv1 8))))
(assert (not (= (_ bv8 8) x42)))
(assert (not (= (_ bv8 8) x52)))
(assert (not (= (_ bv8 8) x62)))
(assert (not (= (_ bv8 8) (_ bv4 8))))
(assert (not (= (_ bv8 8) (_ bv3 8))))
(assert (not (= x22 (_ bv1 8))))
(assert (not (= x22 x42)))
(assert (not (= x22 x52)))
(assert (not (= x22 x62)))
(assert (not (= x22 (_ bv4 8))))
(assert (not (= x22 (_ bv3 8))))
(assert (not (= (_ bv1 8) x42)))
(assert (not (= (_ bv1 8) x52)))
(assert (not (= (_ bv1 8) x62)))
(assert (not (= (_ bv1 8) (_ bv4 8))))
(assert (not (= (_ bv1 8) (_ bv3 8))))
(assert (not (= x42 x52)))
(assert (not (= x42 x62)))
(assert (not (= x42 (_ bv4 8))))
(assert (not (= x42 (_ bv3 8))))
(assert (not (= x52 x62)))
(assert (not (= x52 (_ bv4 8))))
(assert (not (= x52 (_ bv3 8))))
(assert (not (= x62 (_ bv4 8))))
(assert (not (= x62 (_ bv3 8))))
(assert (not (= (_ bv4 8) (_ bv3 8))))
(assert (not (= x03 x13)))
(assert (not (= x03 x23)))
(assert (not (= x03 (_ bv6 8))))
(assert (not (= x03 x43)))
(assert (not (= x03 (_ bv1 8))))
(assert (not (= x03 (_ bv4 8))))
(assert (not (= x03 x73)))
(assert (not (= x03 x83)))
(assert (not (= x13 x23)))
(assert (not (= x13 (_ bv6 8))))
(assert (not (= x13 x43)))
(assert (not (= x13 (_ bv1 8))))
(assert (not (= x13 (_ bv4 8))))
(assert (not (= x13 x73)))
(assert (not (= x13 x83)))
(assert (not (= x23 (_ bv6 8))))
(assert (not (= x23 x43)))
(assert (not (= x23 (_ bv1 8))))
(assert (not (= x23 (_ bv4 8))))
(assert (not (= x23 x73)))
(assert (not (= x23 x83)))
(assert (not (= (_ bv6 8) x43)))
(assert (not (= (_ bv6 8) (_ bv1 8))))
(assert (not (= (_ bv6 8) (_ bv4 8))))
(assert (not (= (_ bv6 8) x73)))
(assert (not (= (_ bv6 8) x83)))
(assert (not (= x43 (_ bv1 8))))
(assert (not (= x43 (_ bv4 8))))
(assert (not (= x43 x73)))
(assert (not (= x43 x83)))
(assert (not (= (_ bv1 8) (_ bv4 8))))
(assert (not (= (_ bv1 8) x73)))
(assert (not (= (_ bv1 8) x83)))
(assert (not (= (_ bv4 8) x73)))
(assert (not (= (_ bv4 8) x83)))
(assert (not (= x73 x83)))
(assert (not (= (_ bv4 8) (_ bv3 8))))
(assert (not (= (_ bv4 8) (_ bv9 8))))
(assert (not (= (_ bv4 8) x34)))
(assert (not (= (_ bv4 8) (_ bv8 8))))
(assert (not (= (_ bv4 8) x54)))
(assert (not (= (_ bv4 8) x64)))
(assert (not (= (_ bv4 8) x74)))
(assert (not (= (_ bv4 8) (_ bv7 8))))
(assert (not (= (_ bv3 8) (_ bv9 8))))
(assert (not (= (_ bv3 8) x34)))
(assert (not (= (_ bv3 8) (_ bv8 8))))
(assert (not (= (_ bv3 8) x54)))
(assert (not (= (_ bv3 8) x64)))
(assert (not (= (_ bv3 8) x74)))
(assert (not (= (_ bv3 8) (_ bv7 8))))
(assert (not (= (_ bv9 8) x34)))
(assert (not (= (_ bv9 8) (_ bv8 8))))
(assert (not (= (_ bv9 8) x54)))
(assert (not (= (_ bv9 8) x64)))
(assert (not (= (_ bv9 8) x74)))
(assert (not (= (_ bv9 8) (_ bv7 8))))
(assert (not (= x34 (_ bv8 8))))
(assert (not (= x34 x54)))
(assert (not (= x34 x64)))
(assert (not (= x34 x74)))
(assert (not (= x34 (_ bv7 8))))
(assert (not (= (_ bv8 8) x54)))
(assert (not (= (_ bv8 8) x64)))
(assert (not (= (_ bv8 8) x74)))
(assert (not (= (_ bv8 8) (_ bv7 8))))
(assert (not (= x54 x64)))
(assert (not (= x54 x74)))
(assert (not (= x54 (_ bv7 8))))
(assert (not (= x64 x74)))
(assert (not (= x64 (_ bv7 8))))
(assert (not (= x74 (_ bv7 8))))
(assert (not (= x05 (_ bv6 8))))
(assert (not (= x05 (_ bv8 8))))
(assert (not (= x05 (_ bv3 8))))
(assert (not (= x05 x45)))
(assert (not (= x05 x55)))
(assert (not (= x05 x65)))
(assert (not (= x05 (_ bv2 8))))
(assert (not (= x05 x85)))
(assert (not (= (_ bv6 8) (_ bv8 8))))
(assert (not (= (_ bv6 8) (_ bv3 8))))
(assert (not (= (_ bv6 8) x45)))
(assert (not (= (_ bv6 8) x55)))
(assert (not (= (_ bv6 8) x65)))
(assert (not (= (_ bv6 8) (_ bv2 8))))
(assert (not (= (_ bv6 8) x85)))
(assert (not (= (_ bv8 8) (_ bv3 8))))
(assert (not (= (_ bv8 8) x45)))
(assert (not (= (_ bv8 8) x55)))
(assert (not (= (_ bv8 8) x65)))
(assert (not (= (_ bv8 8) (_ bv2 8))))
(assert (not (= (_ bv8 8) x85)))
(assert (not (= (_ bv3 8) x45)))
(assert (not (= (_ bv3 8) x55)))
(assert (not (= (_ bv3 8) x65)))
(assert (not (= (_ bv3 8) (_ bv2 8))))
(assert (not (= (_ bv3 8) x85)))
(assert (not (= x45 x55)))
(assert (not (= x45 x65)))
(assert (not (= x45 (_ bv2 8))))
(assert (not (= x45 x85)))
(assert (not (= x55 x65)))
(assert (not (= x55 (_ bv2 8))))
(assert (not (= x55 x85)))
(assert (not (= x65 (_ bv2 8))))
(assert (not (= x65 x85)))
(assert (not (= (_ bv2 8) x85)))
(assert (not (= x06 x16)))
(assert (not (= x06 x26)))
(assert (not (= x06 x36)))
(assert (not (= x06 x46)))
(assert (not (= x06 (_ bv2 8))))
(assert (not (= x06 x66)))
(assert (not (= x06 x76)))
(assert (not (= x06 x86)))
(assert (not (= x16 x26)))
(assert (not (= x16 x36)))
(assert (not (= x16 x46)))
(assert (not (= x16 (_ bv2 8))))
(assert (not (= x16 x66)))
(assert (not (= x16 x76)))
(assert (not (= x16 x86)))
(assert (not (= x26 x36)))
(assert (not (= x26 x46)))
(assert (not (= x26 (_ bv2 8))))
(assert (not (= x26 x66)))
(assert (not (= x26 x76)))
(assert (not (= x26 x86)))
(assert (not (= x36 x46)))
(assert (not (= x36 (_ bv2 8))))
(assert (not (= x36 x66)))
(assert (not (= x36 x76)))
(assert (not (= x36 x86)))
(assert (not (= x46 (_ bv2 8))))
(assert (not (= x46 x66)))
(assert (not (= x46 x76)))
(assert (not (= x46 x86)))
(assert (not (= (_ bv2 8) x66)))
(assert (not (= (_ bv2 8) x76)))
(assert (not (= (_ bv2 8) x86)))
(assert (not (= x66 x76)))
(assert (not (= x66 x86)))
(assert (not (= x76 x86)))
(assert (not (= (_ bv3 8) x17)))
(assert (not (= (_ bv3 8) x27)))
(assert (not (= (_ bv3 8) (_ bv5 8))))
(assert (not (= (_ bv3 8) (_ bv6 8))))
(assert (not (= (_ bv3 8) x57)))
(assert (not (= (_ bv3 8) (_ bv7 8))))
(assert (not (= (_ bv3 8) (_ bv8 8))))
(assert (not (= (_ bv3 8) x87)))
(assert (not (= x17 x27)))
(assert (not (= x17 (_ bv5 8))))
(assert (not (= x17 (_ bv6 8))))
(assert (not (= x17 x57)))
(assert (not (= x17 (_ bv7 8))))
(assert (not (= x17 (_ bv8 8))))
(assert (not (= x17 x87)))
(assert (not (= x27 (_ bv5 8))))
(assert (not (= x27 (_ bv6 8))))
(assert (not (= x27 x57)))
(assert (not (= x27 (_ bv7 8))))
(assert (not (= x27 (_ bv8 8))))
(assert (not (= x27 x87)))
(assert (not (= (_ bv5 8) (_ bv6 8))))
(assert (not (= (_ bv5 8) x57)))
(assert (not (= (_ bv5 8) (_ bv7 8))))
(assert (not (= (_ bv5 8) (_ bv8 8))))
(assert (not (= (_ bv5 8) x87)))
(assert (not (= (_ bv6 8) x57)))
(assert (not (= (_ bv6 8) (_ bv7 8))))
(assert (not (= (_ bv6 8) (_ bv8 8))))
(assert (not (= (_ bv6 8) x87)))
(assert (not (= x57 (_ bv7 8))))
(assert (not (= x57 (_ bv8 8))))
(assert (not (= x57 x87)))
(assert (not (= (_ bv7 8) (_ bv8 8))))
(assert (not (= (_ bv7 8) x87)))
(assert (not (= (_ bv8 8) x87)))
(assert (not (= x08 x18)))
(assert (not (= x08 (_ bv7 8))))
(assert (not (= x08 (_ bv8 8))))
(assert (not (= x08 (_ bv4 8))))
(assert (not (= x08 x58)))
(assert (not (= x08 (_ bv1 8))))
(assert (not (= x08 (_ bv9 8))))
(assert (not (= x08 (_ bv2 8))))
(assert (not (= x18 (_ bv7 8))))
(assert (not (= x18 (_ bv8 8))))
(assert (not (= x18 (_ bv4 8))))
(assert (not (= x18 x58)))
(assert (not (= x18 (_ bv1 8))))
(assert (not (= x18 (_ bv9 8))))
(assert (not (= x18 (_ bv2 8))))
(assert (not (= (_ bv7 8) (_ bv8 8))))
(assert (not (= (_ bv7 8) (_ bv4 8))))
(assert (not (= (_ bv7 8) x58)))
(assert (not (= (_ bv7 8) (_ bv1 8))))
(assert (not (= (_ bv7 8) (_ bv9 8))))
(assert (not (= (_ bv7 8) (_ bv2 8))))
(assert (not (= (_ bv8 8) (_ bv4 8))))
(assert (not (= (_ bv8 8) x58)))
(assert (not (= (_ bv8 8) (_ bv1 8))))
(assert (not (= (_ bv8 8) (_ bv9 8))))
(assert (not (= (_ bv8 8) (_ bv2 8))))
(assert (not (= (_ bv4 8) x58)))
(assert (not (= (_ bv4 8) (_ bv1 8))))
(assert (not (= (_ bv4 8) (_ bv9 8))))
(assert (not (= (_ bv4 8) (_ bv2 8))))
(assert (not (= x58 (_ bv1 8))))
(assert (not (= x58 (_ bv9 8))))
(assert (not (= x58 (_ bv2 8))))
(assert (not (= (_ bv1 8) (_ bv9 8))))
(assert (not (= (_ bv1 8) (_ bv2 8))))
(assert (not (= (_ bv9 8) (_ bv2 8))))
(assert (not (= (_ bv5 8) (_ bv7 8))))
(assert (not (= (_ bv5 8) x02)))
(assert (not (= (_ bv5 8) x10)))
(assert (not (= (_ bv5 8) (_ bv4 8))))
(assert (not (= (_ bv5 8) (_ bv8 8))))
(assert (not (= (_ bv5 8) (_ bv2 8))))
(assert (not (= (_ bv5 8) x21)))
(assert (not (= (_ bv5 8) x22)))
(assert (not (= (_ bv7 8) x02)))
(assert (not (= (_ bv7 8) x10)))
(assert (not (= (_ bv7 8) (_ bv4 8))))
(assert (not (= (_ bv7 8) (_ bv8 8))))
(assert (not (= (_ bv7 8) (_ bv2 8))))
(assert (not (= (_ bv7 8) x21)))
(assert (not (= (_ bv7 8) x22)))
(assert (not (= x02 x10)))
(assert (not (= x02 (_ bv4 8))))
(assert (not (= x02 (_ bv8 8))))
(assert (not (= x02 (_ bv2 8))))
(assert (not (= x02 x21)))
(assert (not (= x02 x22)))
(assert (not (= x10 (_ bv4 8))))
(assert (not (= x10 (_ bv8 8))))
(assert (not (= x10 (_ bv2 8))))
(assert (not (= x10 x21)))
(assert (not (= x10 x22)))
(assert (not (= (_ bv4 8) (_ bv8 8))))
(assert (not (= (_ bv4 8) (_ bv2 8))))
(assert (not (= (_ bv4 8) x21)))
(assert (not (= (_ bv4 8) x22)))
(assert (not (= (_ bv8 8) (_ bv2 8))))
(assert (not (= (_ bv8 8) x21)))
(assert (not (= (_ bv8 8) x22)))
(assert (not (= (_ bv2 8) x21)))
(assert (not (= (_ bv2 8) x22)))
(assert (not (= x21 x22)))
(assert (not (= x03 (_ bv4 8))))
(assert (not (= x03 x05)))
(assert (not (= x03 x13)))
(assert (not (= x03 (_ bv3 8))))
(assert (not (= x03 (_ bv6 8))))
(assert (not (= x03 x23)))
(assert (not (= x03 (_ bv9 8))))
(assert (not (= x03 (_ bv8 8))))
(assert (not (= (_ bv4 8) x05)))
(assert (not (= (_ bv4 8) x13)))
(assert (not (= (_ bv4 8) (_ bv3 8))))
(assert (not (= (_ bv4 8) (_ bv6 8))))
(assert (not (= (_ bv4 8) x23)))
(assert (not (= (_ bv4 8) (_ bv9 8))))
(assert (not (= (_ bv4 8) (_ bv8 8))))
(assert (not (= x05 x13)))
(assert (not (= x05 (_ bv3 8))))
(assert (not (= x05 (_ bv6 8))))
(assert (not (= x05 x23)))
(assert (not (= x05 (_ bv9 8))))
(assert (not (= x05 (_ bv8 8))))
(assert (not (= x13 (_ bv3 8))))
(assert (not (= x13 (_ bv6 8))))
(assert (not (= x13 x23)))
(assert (not (= x13 (_ bv9 8))))
(assert (not (= x13 (_ bv8 8))))
(assert (not (= (_ bv3 8) (_ bv6 8))))
(assert (not (= (_ bv3 8) x23)))
(assert (not (= (_ bv3 8) (_ bv9 8))))
(assert (not (= (_ bv3 8) (_ bv8 8))))
(assert (not (= (_ bv6 8) x23)))
(assert (not (= (_ bv6 8) (_ bv9 8))))
(assert (not (= (_ bv6 8) (_ bv8 8))))
(assert (not (= x23 (_ bv9 8))))
(assert (not (= x23 (_ bv8 8))))
(assert (not (= (_ bv9 8) (_ bv8 8))))
(assert (not (= x06 (_ bv3 8))))
(assert (not (= x06 x08)))
(assert (not (= x06 x16)))
(assert (not (= x06 x17)))
(assert (not (= x06 x18)))
(assert (not (= x06 x26)))
(assert (not (= x06 x27)))
(assert (not (= x06 (_ bv7 8))))
(assert (not (= (_ bv3 8) x08)))
(assert (not (= (_ bv3 8) x16)))
(assert (not (= (_ bv3 8) x17)))
(assert (not (= (_ bv3 8) x18)))
(assert (not (= (_ bv3 8) x26)))
(assert (not (= (_ bv3 8) x27)))
(assert (not (= (_ bv3 8) (_ bv7 8))))
(assert (not (= x08 x16)))
(assert (not (= x08 x17)))
(assert (not (= x08 x18)))
(assert (not (= x08 x26)))
(assert (not (= x08 x27)))
(assert (not (= x08 (_ bv7 8))))
(assert (not (= x16 x17)))
(assert (not (= x16 x18)))
(assert (not (= x16 x26)))
(assert (not (= x16 x27)))
(assert (not (= x16 (_ bv7 8))))
(assert (not (= x17 x18)))
(assert (not (= x17 x26)))
(assert (not (= x17 x27)))
(assert (not (= x17 (_ bv7 8))))
(assert (not (= x18 x26)))
(assert (not (= x18 x27)))
(assert (not (= x18 (_ bv7 8))))
(assert (not (= x26 x27)))
(assert (not (= x26 (_ bv7 8))))
(assert (not (= x27 (_ bv7 8))))
(assert (not (= x30 (_ bv9 8))))
(assert (not (= x30 (_ bv1 8))))
(assert (not (= x30 x40)))
(assert (not (= x30 (_ bv5 8))))
(assert (not (= x30 x42)))
(assert (not (= x30 x50)))
(assert (not (= x30 x51)))
(assert (not (= x30 x52)))
(assert (not (= (_ bv9 8) (_ bv1 8))))
(assert (not (= (_ bv9 8) x40)))
(assert (not (= (_ bv9 8) (_ bv5 8))))
(assert (not (= (_ bv9 8) x42)))
(assert (not (= (_ bv9 8) x50)))
(assert (not (= (_ bv9 8) x51)))
(assert (not (= (_ bv9 8) x52)))
(assert (not (= (_ bv1 8) x40)))
(assert (not (= (_ bv1 8) (_ bv5 8))))
(assert (not (= (_ bv1 8) x42)))
(assert (not (= (_ bv1 8) x50)))
(assert (not (= (_ bv1 8) x51)))
(assert (not (= (_ bv1 8) x52)))
(assert (not (= x40 (_ bv5 8))))
(assert (not (= x40 x42)))
(assert (not (= x40 x50)))
(assert (not (= x40 x51)))
(assert (not (= x40 x52)))
(assert (not (= (_ bv5 8) x42)))
(assert (not (= (_ bv5 8) x50)))
(assert (not (= (_ bv5 8) x51)))
(assert (not (= (_ bv5 8) x52)))
(assert (not (= x42 x50)))
(assert (not (= x42 x51)))
(assert (not (= x42 x52)))
(assert (not (= x50 x51)))
(assert (not (= x50 x52)))
(assert (not (= x51 x52)))
(assert (not (= (_ bv6 8) x34)))
(assert (not (= (_ bv6 8) (_ bv3 8))))
(assert (not (= (_ bv6 8) x43)))
(assert (not (= (_ bv6 8) (_ bv8 8))))
(assert (not (= (_ bv6 8) x45)))
(assert (not (= (_ bv6 8) (_ bv1 8))))
(assert (not (= (_ bv6 8) x54)))
(assert (not (= (_ bv6 8) x55)))
(assert (not (= x34 (_ bv3 8))))
(assert (not (= x34 x43)))
(assert (not (= x34 (_ bv8 8))))
(assert (not (= x34 x45)))
(assert (not (= x34 (_ bv1 8))))
(assert (not (= x34 x54)))
(assert (not (= x34 x55)))
(assert (not (= (_ bv3 8) x43)))
(assert (not (= (_ bv3 8) (_ bv8 8))))
(assert (not (= (_ bv3 8) x45)))
(assert (not (= (_ bv3 8) (_ bv1 8))))
(assert (not (= (_ bv3 8) x54)))
(assert (not (= (_ bv3 8) x55)))
(assert (not (= x43 (_ bv8 8))))
(assert (not (= x43 x45)))
(assert (not (= x43 (_ bv1 8))))
(assert (not (= x43 x54)))
(assert (not (= x43 x55)))
(assert (not (= (_ bv8 8) x45)))
(assert (not (= (_ bv8 8) (_ bv1 8))))
(assert (not (= (_ bv8 8) x54)))
(assert (not (= (_ bv8 8) x55)))
(assert (not (= x45 (_ bv1 8))))
(assert (not (= x45 x54)))
(assert (not (= x45 x55)))
(assert (not (= (_ bv1 8) x54)))
(assert (not (= (_ bv1 8) x55)))
(assert (not (= x54 x55)))
(assert (not (= x36 (_ bv5 8))))
(assert (not (= x36 (_ bv8 8))))
(assert (not (= x36 x46)))
(assert (not (= x36 (_ bv6 8))))
(assert (not (= x36 (_ bv4 8))))
(assert (not (= x36 (_ bv2 8))))
(assert (not (= x36 x57)))
(assert (not (= x36 x58)))
(assert (not (= (_ bv5 8) (_ bv8 8))))
(assert (not (= (_ bv5 8) x46)))
(assert (not (= (_ bv5 8) (_ bv6 8))))
(assert (not (= (_ bv5 8) (_ bv4 8))))
(assert (not (= (_ bv5 8) (_ bv2 8))))
(assert (not (= (_ bv5 8) x57)))
(assert (not (= (_ bv5 8) x58)))
(assert (not (= (_ bv8 8) x46)))
(assert (not (= (_ bv8 8) (_ bv6 8))))
(assert (not (= (_ bv8 8) (_ bv4 8))))
(assert (not (= (_ bv8 8) (_ bv2 8))))
(assert (not (= (_ bv8 8) x57)))
(assert (not (= (_ bv8 8) x58)))
(assert (not (= x46 (_ bv6 8))))
(assert (not (= x46 (_ bv4 8))))
(assert (not (= x46 (_ bv2 8))))
(assert (not (= x46 x57)))
(assert (not (= x46 x58)))
(assert (not (= (_ bv6 8) (_ bv4 8))))
(assert (not (= (_ bv6 8) (_ bv2 8))))
(assert (not (= (_ bv6 8) x57)))
(assert (not (= (_ bv6 8) x58)))
(assert (not (= (_ bv4 8) (_ bv2 8))))
(assert (not (= (_ bv4 8) x57)))
(assert (not (= (_ bv4 8) x58)))
(assert (not (= (_ bv2 8) x57)))
(assert (not (= (_ bv2 8) x58)))
(assert (not (= x57 x58)))
(assert (not (= x60 x61)))
(assert (not (= x60 x62)))
(assert (not (= x60 x70)))
(assert (not (= x60 (_ bv6 8))))
(assert (not (= x60 (_ bv4 8))))
(assert (not (= x60 x80)))
(assert (not (= x60 x81)))
(assert (not (= x60 (_ bv3 8))))
(assert (not (= x61 x62)))
(assert (not (= x61 x70)))
(assert (not (= x61 (_ bv6 8))))
(assert (not (= x61 (_ bv4 8))))
(assert (not (= x61 x80)))
(assert (not (= x61 x81)))
(assert (not (= x61 (_ bv3 8))))
(assert (not (= x62 x70)))
(assert (not (= x62 (_ bv6 8))))
(assert (not (= x62 (_ bv4 8))))
(assert (not (= x62 x80)))
(assert (not (= x62 x81)))
(assert (not (= x62 (_ bv3 8))))
(assert (not (= x70 (_ bv6 8))))
(assert (not (= x70 (_ bv4 8))))
(assert (not (= x70 x80)))
(assert (not (= x70 x81)))
(assert (not (= x70 (_ bv3 8))))
(assert (not (= (_ bv6 8) (_ bv4 8))))
(assert (not (= (_ bv6 8) x80)))
(assert (not (= (_ bv6 8) x81)))
(assert (not (= (_ bv6 8) (_ bv3 8))))
(assert (not (= (_ bv4 8) x80)))
(assert (not (= (_ bv4 8) x81)))
(assert (not (= (_ bv4 8) (_ bv3 8))))
(assert (not (= x80 x81)))
(assert (not (= x80 (_ bv3 8))))
(assert (not (= x81 (_ bv3 8))))
(assert (not (= (_ bv4 8) x64)))
(assert (not (= (_ bv4 8) x65)))
(assert (not (= (_ bv4 8) x73)))
(assert (not (= (_ bv4 8) x74)))
(assert (not (= (_ bv4 8) (_ bv2 8))))
(assert (not (= (_ bv4 8) x83)))
(assert (not (= (_ bv4 8) (_ bv7 8))))
(assert (not (= (_ bv4 8) x85)))
(assert (not (= x64 x65)))
(assert (not (= x64 x73)))
(assert (not (= x64 x74)))
(assert (not (= x64 (_ bv2 8))))
(assert (not (= x64 x83)))
(assert (not (= x64 (_ bv7 8))))
(assert (not (= x64 x85)))
(assert (not (= x65 x73)))
(assert (not (= x65 x74)))
(assert (not (= x65 (_ bv2 8))))
(assert (not (= x65 x83)))
(assert (not (= x65 (_ bv7 8))))
(assert (not (= x65 x85)))
(assert (not (= x73 x74)))
(assert (not (= x73 (_ bv2 8))))
(assert (not (= x73 x83)))
(assert (not (= x73 (_ bv7 8))))
(assert (not (= x73 x85)))
(assert (not (= x74 (_ bv2 8))))
(assert (not (= x74 x83)))
(assert (not (= x74 (_ bv7 8))))
(assert (not (= x74 x85)))
(assert (not (= (_ bv2 8) x83)))
(assert (not (= (_ bv2 8) (_ bv7 8))))
(assert (not (= (_ bv2 8) x85)))
(assert (not (= x83 (_ bv7 8))))
(assert (not (= x83 x85)))
(assert (not (= (_ bv7 8) x85)))
(assert (not (= x66 (_ bv7 8))))
(assert (not (= x66 (_ bv1 8))))
(assert (not (= x66 x76)))
(assert (not (= x66 (_ bv8 8))))
(assert (not (= x66 (_ bv9 8))))
(assert (not (= x66 x86)))
(assert (not (= x66 x87)))
(assert (not (= x66 (_ bv2 8))))
(assert (not (= (_ bv7 8) (_ bv1 8))))
(assert (not (= (_ bv7 8) x76)))
(assert (not (= (_ bv7 8) (_ bv8 8))))
(assert (not (= (_ bv7 8) (_ bv9 8))))
(assert (not (= (_ bv7 8) x86)))
(assert (not (= (_ bv7 8) x87)))
(assert (not (= (_ bv7 8) (_ bv2 8))))
(assert (not (= (_ bv1 8) x76)))
(assert (not (= (_ bv1 8) (_ bv8 8))))
(assert (not (= (_ bv1 8) (_ bv9 8))))
(assert (not (= (_ bv1 8) x86)))
(assert (not (= (_ bv1 8) x87)))
(assert (not (= (_ bv1 8) (_ bv2 8))))
(assert (not (= x76 (_ bv8 8))))
(assert (not (= x76 (_ bv9 8))))
(assert (not (= x76 x86)))
(assert (not (= x76 x87)))
(assert (not (= x76 (_ bv2 8))))
(assert (not (= (_ bv8 8) (_ bv9 8))))
(assert (not (= (_ bv8 8) x86)))
(assert (not (= (_ bv8 8) x87)))
(assert (not (= (_ bv8 8) (_ bv2 8))))
(assert (not (= (_ bv9 8) x86)))
(assert (not (= (_ bv9 8) x87)))
(assert (not (= (_ bv9 8) (_ bv2 8))))
(assert (not (= x86 x87)))
(assert (not (= x86 (_ bv2 8))))
(assert (not (= x87 (_ bv2 8))))
(check-sat)
(exit)
